NAME          ClpDefau  FREE
ROWS
 N  OBJROW
 L  ZMUNI1_PCT
 L  ZMUNI2_PCT
 L  ZMUNI3_PCT
 L  ZMUNI4_PCT
 L  ZMUNI5_PCT
 L  ZMUNI6_PCT
 L  ZMUNI7_PCT
 L  ZMUNI8_PCT
 L  ZMUNI9_PCT
COLUMNS
    QMUNI1 OBJROW 1.          
    QMUNI1 ZMUNI1_PCT 29413.9862  
    QMUNI1 ZMUNI2_PCT 1249.3134   
    QMUNI1 ZMUNI3_PCT 3726.3871   
    QMUNI1 ZMUNI4_PCT 2647.0185   
    QMUNI1 ZMUNI5_PCT  -240.326   
    QMUNI1 ZMUNI6_PCT  -117.3019  
    QMUNI1 ZMUNI7_PCT 950.6226    
    QMUNI1 ZMUNI8_PCT 449.3713    
    QMUNI1 ZMUNI9_PCT  -691.2232  
    QMUNI2 OBJROW 1.          
    QMUNI2 ZMUNI1_PCT 1192.4744   
    QMUNI2 ZMUNI2_PCT 35363.9603  
    QMUNI2 ZMUNI3_PCT 2013.9695   
    QMUNI2 ZMUNI4_PCT 2226.4481   
    QMUNI2 ZMUNI5_PCT  -134.4681  
    QMUNI2 ZMUNI6_PCT  -115.9668  
    QMUNI2 ZMUNI7_PCT 329.9713    
    QMUNI2 ZMUNI8_PCT 462.3413    
    QMUNI2 ZMUNI9_PCT 96.1304     
    QMUNI3 OBJROW 1.          
    QMUNI3 ZMUNI1_PCT 3757.2861   
    QMUNI3 ZMUNI2_PCT 2249.9085   
    QMUNI3 ZMUNI3_PCT 31243.3243  
    QMUNI3 ZMUNI4_PCT 4774.8566   
    QMUNI3 ZMUNI5_PCT  -354.0039  
    QMUNI3 ZMUNI6_PCT  -214.5767  
    QMUNI3 ZMUNI7_PCT 1113.8916   
    QMUNI3 ZMUNI8_PCT 920.1049    
    QMUNI3 ZMUNI9_PCT 56.076      
    QMUNI4 OBJROW 1.          
    QMUNI4 ZMUNI1_PCT 3113.3652   
    QMUNI4 ZMUNI2_PCT 2821.5409   
    QMUNI4 ZMUNI3_PCT 5330.0858   
    QMUNI4 ZMUNI4_PCT 112543.6783 
    QMUNI4 ZMUNI5_PCT 63.8961     
    QMUNI4 ZMUNI6_PCT 143.2419    
    QMUNI4 ZMUNI7_PCT 1155.4718   
    QMUNI4 ZMUNI8_PCT 980.7586    
    QMUNI4 ZMUNI9_PCT 268.5547    
    QMUNI5 OBJROW 1.          
    QMUNI5 ZMUNI1_PCT  -78.9642   
    QMUNI5 ZMUNI2_PCT  -189.9719  
    QMUNI5 ZMUNI3_PCT  -113.8687  
    QMUNI5 ZMUNI4_PCT  -139.0457  
    QMUNI5 ZMUNI5_PCT 39257.0495  
    QMUNI5 ZMUNI6_PCT 2822.876    
    QMUNI5 ZMUNI7_PCT 17.9291     
    QMUNI5 ZMUNI8_PCT  -179.6723  
    QMUNI5 ZMUNI9_PCT  -389.0991  
    QMUNI6 OBJROW 1.          
    QMUNI6 ZMUNI1_PCT  -249.8627  
    QMUNI6 ZMUNI2_PCT  -463.1042  
    QMUNI6 ZMUNI3_PCT  -326.538   
    QMUNI6 ZMUNI4_PCT  -325.5844  
    QMUNI6 ZMUNI5_PCT 2537.5366   
    QMUNI6 ZMUNI6_PCT 34390.4495  
    QMUNI6 ZMUNI7_PCT  -602.7222  
    QMUNI6 ZMUNI8_PCT  -864.4104  
    QMUNI6 ZMUNI9_PCT  -1293.1824 
    QMUNI7 OBJROW 1.          
    QMUNI7 ZMUNI1_PCT 855.2551    
    QMUNI7 ZMUNI2_PCT 239.563     
    QMUNI7 ZMUNI3_PCT 686.4548    
    QMUNI7 ZMUNI4_PCT 436.0199    
    QMUNI7 ZMUNI5_PCT  -72.2886   
    QMUNI7 ZMUNI6_PCT 96.5118     
    QMUNI7 ZMUNI7_PCT 36594.0094  
    QMUNI7 ZMUNI8_PCT 1621.6278   
    QMUNI7 ZMUNI9_PCT  -482.1778  
    QMUNI8 OBJROW 1.          
    QMUNI8 ZMUNI1_PCT 615.1199    
    QMUNI8 ZMUNI2_PCT 435.0663    
    QMUNI8 ZMUNI3_PCT 638.0082    
    QMUNI8 ZMUNI4_PCT 442.5049    
    QMUNI8 ZMUNI5_PCT  -426.2925  
    QMUNI8 ZMUNI6_PCT  -333.2138  
    QMUNI8 ZMUNI7_PCT 1810.8368   
    QMUNI8 ZMUNI8_PCT 31692.8863  
    QMUNI8 ZMUNI9_PCT 252.1515    
    QMUNI9 OBJROW 1.          
    QMUNI9 ZMUNI1_PCT  -108.7189  
    QMUNI9 ZMUNI2_PCT 218.2007    
    QMUNI9 ZMUNI3_PCT  -7.0571    
    QMUNI9 ZMUNI4_PCT  -28.9917   
    QMUNI9 ZMUNI5_PCT  -400.3525  
    QMUNI9 ZMUNI6_PCT  -407.2189  
    QMUNI9 ZMUNI7_PCT  -320.4346  
    QMUNI9 ZMUNI8_PCT 248.7182    
    QMUNI9 ZMUNI9_PCT 31310.6537  
RHS
    RHS ZMUNI1_PCT 0.9591189499
    RHS ZMUNI2_PCT 0.1105447703
    RHS ZMUNI3_PCT 0.3377022182
    RHS ZMUNI4_PCT 3.7642351036
    RHS ZMUNI5_PCT  -0.90416431
    RHS ZMUNI6_PCT  -0.23284463
    RHS ZMUNI7_PCT  -1.55764407
    RHS ZMUNI8_PCT  -0.90805111
    RHS ZMUNI9_PCT  -1.05684503
BOUNDS
 LO BOUND QMUNI1 -0.000654492
 UP BOUND QMUNI1      1.1e+10
 LO BOUND QMUNI2 -0.000435918
 UP BOUND QMUNI2      1.1e+10
 LO BOUND QMUNI3 -0.000489741
 UP BOUND QMUNI3      1.1e+10
 LO BOUND QMUNI4 -0.000180305
 UP BOUND QMUNI4      1.1e+10
 LO BOUND QMUNI5 -0.000259377
 UP BOUND QMUNI5      1.1e+10
 LO BOUND QMUNI6 -0.000416105
 UP BOUND QMUNI6      1.1e+10
 LO BOUND QMUNI7  -6.29981e-5
 UP BOUND QMUNI7      1.1e+10
 LO BOUND QMUNI8 -0.000180207
 UP BOUND QMUNI8      1.1e+10
 LO BOUND QMUNI9 -0.000141601
 UP BOUND QMUNI9      1.1e+10
ENDATA
